NAME : CHRVRP
COMMENT : master instance for CHRVRP
EDGE_WEIGHT_TYPE : EUC_2D
NODE_COORD_SECTION
V100 40.769e+03 71.077e+03
V101 5.537e+03 96.579e+03
V102 78.853e+03 0.422e+03
S0 50.837e+03 68.389e+03
S1 66.390e+03 40.535e+03
D10 86.376e+03 24.199e+03
D11 28.491e+03 72.031e+03
D12 7.326e+03 5.838e+03
D13 76.324e+03 40.967e+03
D14 45.272e+03 61.067e+03
D15 54.230e+03 25.591e+03
D16 72.664e+03 28.567e+03
D17 84.891e+03 68.446e+03
D18 76.820e+03 84.092e+03
D19 73.314e+03 80.915e+03
EOF
